32      1       
22      
0       0       3       2       3       4       
7       0       3       5       15      16      
2       0       3       6       8       9       
7       0       3       7       10      12      
10      4       2       25      30      
3       0       1       26      
8       0       1       13      
7       9       1       17      
5       4       3       11      21      24      
4       0       1       19      
6       6       3       13      19      22      
10      6       2       14      18      
10      8       1       31      
5       5       2       17      23      
3       3       1       18      
7       0       2       20      29      
2       4       1       25      
8       0       2       27      30      
4       0       1       28      
3       2       1       31      
5       0       1       22      
2       5       1       26      
1       10      1       31      
5       5       1       27      
7       6       1       28      
9       0       1       30      
3       0       1       28      
2       6       1       29      
6       0       1       32      
7       0       1       32      
9       0       1       32      
0       0       0       